User:   zoe@dhcp-140-117.vpn.chalmers.se
Date:   Tue Feb 25 21:35:14 2025
Arch:   arm64
Pid:    34192
CWD:    /Users/zoe/Documents/GitHub/TIF320_Computitional_Materials_and_Molecular_Physics
Python: 3.12.2
gpaw:   /opt/anaconda3/envs/tif320env/lib/python3.12/site-packages/gpaw
_gpaw:  /opt/anaconda3/envs/tif320env/lib/python3.12/site-packages/
        _gpaw.cpython-312-darwin.so
ase:    /opt/anaconda3/envs/tif320env/lib/python3.12/site-packages/ase (version 3.24.0)
numpy:  /opt/anaconda3/envs/tif320env/lib/python3.12/site-packages/numpy (version 2.0.1)
scipy:  /opt/anaconda3/envs/tif320env/lib/python3.12/site-packages/scipy (version 1.15.1)
units:  Angstrom and eV
cores: 1
OpenMP: False
OMP_NUM_THREADS: 1

Input parameters:
  kpts: [8 8 8]
  mode: {ecut: 500.0,
         name: pw}
  random: True
  setups: {Na: 1}
  symmetry: off
  xc: PBE

System changes: positions, numbers, cell, pbc, initial_charges, initial_magmoms

Initialize ...

species:
  Na:
    name: Sodium
    id: 8dbce52902f3add137ce7d12431c9cac
    Z: 11.0
    valence: 1
    core: 10
    charge: 0.0
    file: /opt/anaconda3/envs/tif320env/gpaw-setups/gpaw-setups-24.11.0/Na.1.PBE.gz
    compensation charges: {type: gauss,
                           rc: 0.43,
                           lmax: 2}
    cutoffs: {filter: 2.36,
              core: 3.60}
    projectors:
      #              energy  rcut
      - 3s(1.00)    -2.744   1.349
      - 3p(0.00)    -0.743   1.349
      -  s          24.468   1.349

    # Using partial waves for Na as LCAO basis

Reference energy: -35348.883966  # eV

Spin-paired calculation

Convergence criteria:
 Maximum [total energy] change in last 3 cyles: 0.0005 eV / valence electron
 Maximum integral of absolute [dens]ity change: 0.0001 electrons / valence electron
 Maximum integral of absolute [eigenst]ate change: 4e-08 eV^2 / valence electron
 Maximum number of scf [iter]ations: 333
 (Square brackets indicate name in SCF output, whereas a 'c' in
 the SCF output indicates the quantity has converged.)

Symmetries present (total): 1

  ( 1  0  0)
  ( 0  1  0)
  ( 0  0  1)

512 k-points: 8 x 8 x 8 Monkhorst-Pack grid
512 k-points in the irreducible part of the Brillouin zone
       k-points in crystal coordinates                weights
   0:    -0.43750000   -0.43750000   -0.43750000          1/512
   1:    -0.43750000   -0.43750000   -0.31250000          1/512
   2:    -0.43750000   -0.43750000   -0.18750000          1/512
   3:    -0.43750000   -0.43750000   -0.06250000          1/512
   4:    -0.43750000   -0.43750000    0.06250000          1/512
   5:    -0.43750000   -0.43750000    0.18750000          1/512
   6:    -0.43750000   -0.43750000    0.31250000          1/512
   7:    -0.43750000   -0.43750000    0.43750000          1/512
   8:    -0.43750000   -0.31250000   -0.43750000          1/512
   9:    -0.43750000   -0.31250000   -0.31250000          1/512
          ...
 511:     0.43750000    0.43750000    0.43750000          1/512

Wave functions: Plane wave expansion
  Cutoff energy: 500.000 eV
  Number of coefficients (min, max): 7474, 7535
  Pulay-stress correction: 0.000000 eV/Ang^3 (de/decut=0.000000)
  Using Numpy's FFT
  ScaLapack parameters: grid=1x1, blocksize=None
  Wavefunction extrapolation:
    Improved wavefunction reuse through dual PAW basis

Occupation numbers: Fermi-Dirac:
  width: 0.1000  # eV

Eigensolver
   Davidson(niter=2)

Densities:
  Coarse grid: 40*40*40 grid
  Fine grid: 80*80*80 grid
  Total Charge: 0.000000

Density mixing:
  Method: separate
  Backend: pulay
  Linear mixing parameter: 0.05
  old densities: 5
  Damping of long wavelength oscillations: 50

Hamiltonian:
  XC and Coulomb potentials evaluated on a 80*80*80 grid
  Using the PBE Exchange-Correlation functional
  External potential:
    NoExternalPotential

XC parameters: PBE with 2 nearest neighbor stencil

Total number of cores used: 1

Number of atoms: 8
Number of atomic orbitals: 32
Number of bands in calculation: 9
Number of valence electrons: 8
Bands to converge: occupied

... initialized

Initializing position-dependent things.

Density initialized from atomic densities
Creating initial wave functions:
  9 bands from LCAO basis set

             Na

         Na         Na
                Na
                 Na
             Na         Na

[...]

Positions:
   0 Na    -0.005774    0.005774    0.005774    ( 0.0000,  0.0000,  0.0000)
   1 Na    -2.096600    2.096600    2.096600    ( 0.0000,  0.0000,  0.0000)
   2 Na     2.096600   -2.096600    2.096600    ( 0.0000,  0.0000,  0.0000)
   3 Na     0.000000    0.000000    4.193200    ( 0.0000,  0.0000,  0.0000)
   4 Na     2.096600    2.096600   -2.096600    ( 0.0000,  0.0000,  0.0000)
   5 Na     0.000000    4.193200    0.000000    ( 0.0000,  0.0000,  0.0000)
   6 Na     4.193200    0.000000    0.000000    ( 0.0000,  0.0000,  0.0000)
   7 Na     2.096600    2.096600    2.096600    ( 0.0000,  0.0000,  0.0000)

Unit cell:
           periodic     x           y           z      points  spacing
  1. axis:    yes   -4.193200    4.193200    4.193200    40     0.1483
  2. axis:    yes    4.193200   -4.193200    4.193200    40     0.1483
  3. axis:    yes    4.193200    4.193200   -4.193200    40     0.1483

  Lengths:   7.262835   7.262835   7.262835
  Angles:  109.471221 109.471221 109.471221

Effective grid spacing dv^(1/3) = 0.1664

     iter     time        total  log10-change:
                         energy   eigst   dens
iter:   1 21:35:58   -10.443277
iter:   2 21:36:27   -10.441992   -3.30  -0.85
iter:   3 21:36:52   -10.425179   -3.29  -0.87
iter:   4 21:37:18   -10.422232   -5.06  -1.44
iter:   5 21:37:42   -10.422205c  -7.09  -2.50
iter:   6 21:38:07   -10.421997c  -6.03  -2.66
iter:   7 21:38:32   -10.421983c  -6.92  -3.21
iter:   8 21:39:00   -10.421982c  -7.38  -3.49
iter:   9 21:39:26   -10.421981c  -9.01c -3.88
iter:  10 21:39:53   -10.421981c -10.18c -4.68c

Converged after 10 iterations.

Dipole moment: (0.047575, -0.047575, -0.047575) |e|*Ang

Energy contributions relative to reference atoms: (reference = -35348.883966)

Kinetic:        +17.065659
Potential:      -15.004143
External:        +0.000000
XC:             -12.414696
Entropy (-ST):   -0.126944
Local:           -0.005329
SIC:             +0.000000
Free energy:    -10.485453
Extrapolated:   -10.421981

Showing only first 2 kpts
 Kpt  Band  Eigenvalues  Occupancy
  0     2     -1.43290    2.00000
  0     3     -0.37150    1.98837
  0     4     -0.36972    1.98816
  0     5     -0.36794    1.98795

  1     2     -1.23389    2.00000
  1     3     -0.17271    1.91808
  1     4      0.35011    0.22313
  1     5      0.35263    0.21818

Fermi level: 0.14263

No gap
No difference between direct/indirect transitions

Forces in eV/Ang:
  0 Na    0.00404   -0.00404   -0.00404
  1 Na   -0.00291    0.00291    0.00291
  2 Na   -0.00095    0.00095   -0.00102
  3 Na    0.00001   -0.00001    0.00027
  4 Na   -0.00095   -0.00102    0.00095
  5 Na    0.00001    0.00027   -0.00001
  6 Na   -0.00027   -0.00001   -0.00001
  7 Na    0.00102    0.00095    0.00095

System changes: positions

[...]

Density initialized from wave functions

[...]

System changes: positions

Initializing position-dependent things.

Density initialized from wave functions

[...]

         Na         Na
                Na
                 Na
             Na         Na

                    Na

Positions:
   0 Na    -0.005774   -0.005774    0.005774    ( 0.0000,  0.0000,  0.0000)
   1 Na    -2.096600    2.096600    2.096600    ( 0.0000,  0.0000,  0.0000)
   2 Na     2.096600   -2.096600    2.096600    ( 0.0000,  0.0000,  0.0000)
   3 Na     0.000000    0.000000    4.193200    ( 0.0000,  0.0000,  0.0000)
   4 Na     2.096600    2.096600   -2.096600    ( 0.0000,  0.0000,  0.0000)
   5 Na     0.000000    4.193200    0.000000    ( 0.0000,  0.0000,  0.0000)
   6 Na     4.193200    0.000000    0.000000    ( 0.0000,  0.0000,  0.0000)
   7 Na     2.096600    2.096600    2.096600    ( 0.0000,  0.0000,  0.0000)

Unit cell:
           periodic     x           y           z      points  spacing
  1. axis:    yes   -4.193200    4.193200    4.193200    40     0.1483
  2. axis:    yes    4.193200   -4.193200    4.193200    40     0.1483
  3. axis:    yes    4.193200    4.193200   -4.193200    40     0.1483

  Lengths:   7.262835   7.262835   7.262835
  Angles:  109.471221 109.471221 109.471221

Effective grid spacing dv^(1/3) = 0.1664

     iter     time        total  log10-change:
                         energy   eigst   dens
iter:   1 21:51:43   -10.422103   -4.21
iter:   2 21:52:18   -10.422077   -6.17  -2.34
iter:   3 21:52:50   -10.421981c  -5.78  -2.38
iter:   4 21:53:25   -10.421983c  -7.12  -3.03
iter:   5 21:53:55   -10.421981c  -7.46c -3.04
iter:   6 21:54:26   -10.421982c  -8.13c -4.03c

Converged after 6 iterations.

Dipole moment: (0.048056, 0.048082, -0.048082) |e|*Ang

Energy contributions relative to reference atoms: (reference = -35348.883966)

Kinetic:        +17.065464
Potential:      -15.003962
External:        +0.000000
XC:             -12.414647
Entropy (-ST):   -0.126944
Local:           -0.005365
SIC:             +0.000000
Free energy:    -10.485453
Extrapolated:   -10.421982

Showing only first 2 kpts
 Kpt  Band  Eigenvalues  Occupancy
  0     2     -1.43271    2.00000
  0     3     -0.37170    1.98839
  0     4     -0.36972    1.98816
  0     5     -0.36775    1.98793

  1     2     -1.23388    2.00000
  1     3     -0.17272    1.91809
  1     4      0.35136    0.22065
  1     5      0.35138    0.22063

Fermi level: 0.14262

No gap
No difference between direct/indirect transitions

Forces in eV/Ang:
  0 Na    0.00453    0.00457   -0.00457
  1 Na   -0.00075    0.00202    0.00073
  2 Na    0.00203   -0.00077    0.00077
  3 Na   -0.00015   -0.00016    0.00131
  4 Na   -0.00354   -0.00351    0.00351
  5 Na   -0.00015   -0.00131    0.00016
  6 Na   -0.00126   -0.00016    0.00015
  7 Na   -0.00075   -0.00073   -0.00202